AES/1_3_4/ssaes_r1-20_c3_rw1_e4_f0_k1-20_aes_1base_box_aes_mc_bidirectional/ExperimentMinisat_r17_k7cnf_2011-10-29-153142/Result
WARNING: for repeatability, setting FPU to use double precision
============================[ Problem Statistics ]=============================
|                                                                             |
|  Number of variables:           988                                         |
|  Number of clauses:            4332                                         |
|  Parse time:                   0.00 s                                       |
|  Eliminated clauses:           0.01 Mb                                      |
|  Simplification time:          0.00 s                                       |
|                                                                             |
=============================[ Search Statistics ]==============================
| Conflicts  |          ORIGINAL         |          LEARNT          | Progress |
|            |    Vars  Clauses Literals |    Limit  Clauses Lit/Cl |          |
================================================================================
|        100 |     680     3444    11328 |     1262      100     11 |  9.312 % |
|        250 |     680     3444    11328 |     1389      250     12 |  9.312 % |
|        475 |     680     3444    11328 |     1527      475     12 |  9.312 % |
|        812 |     680     3444    11328 |     1680      812     13 |  9.312 % |
|       1318 |     680     3444    11328 |     1848     1318     12 |  9.312 % |
|       2077 |     680     3444    11328 |     2033     1098     10 |  9.312 % |
===============================================================================
restarts              : 15
conflicts             : 3189           (15116 /sec)
decisions             : 3566           (0.00 % random) (16903 /sec)
propagations          : 1165617        (5525115 /sec)
conflict literals     : 35110          (49.03 % deleted)
Memory used           : 8.00 MB
CPU time              : 0.210967 s

SATISFIABLE
